Name:		mgval_0.50_5A
Optimal value:	367
#Vehicles:	3
Capacity:	220
Depot Node:	1
#Nodes:		34
#Edges:		22
#Arcs:		74
#Required N:	27
#Required E:	11
#Required A:	37

ReN.	DEMAND	S. COST
N2	12	12
N3	11	11
N4	12	12
N8	12	12
N10	18	18
N11	26	26
N12	5	5
N13	3	3
N14	3	3
N15	3	3
N16	13	13
N17	13	13
N18	21	21
N19	20	20
N20	8	8
N21	8	8
N22	5	5
N23	1	1
N24	8	8
N25	12	12
N26	10	10
N27	6	6
N28	20	20
N29	5	5
N30	21	21
N31	13	13
N33	7	7

ReE.	FROM N.	TO N.	T. COST	DEMAND	S. COST
E12	16	17	5	8	8
E13	27	28	10	13	13
E14	9	10	3	7	7
E15	20	21	2	3	3
E16	4	11	10	15	15
E17	1	7	8	9	9
E18	6	7	9	12	12
E19	13	14	4	8	8
E20	6	18	9	18	18
E21	8	9	7	8	8
E22	16	23	9	16	16

EDGE	FROM N.	TO N.	T. COST
NrE1	28	33	3
NrE2	27	32	5
NrE3	4	5	9
NrE4	8	14	2
NrE5	19	20	6
NrE6	30	31	6
NrE7	2	3	5
NrE8	21	22	5
NrE9	28	34	2
NrE10	11	24	15
NrE11	10	11	8

ReA.	FROM N.	TO N.	T. COST	DEMAND	S. COST
A38	27	26	4	3	3
A39	13	2	9	8	8
A40	14	20	3	5	5
A41	22	15	9	15	15
A42	19	18	7	7	7
A43	18	19	7	7	7
A44	2	8	8	6	6
A45	26	31	9	6	6
A46	34	24	10	8	8
A47	6	1	2	3	3
A48	15	21	4	6	6
A49	13	12	2	7	7
A50	17	11	7	5	5
A51	4	10	4	3	3
A52	15	9	5	4	4
A53	32	33	5	5	5
A54	27	21	7	11	11
A55	34	33	1	2	2
A56	2	13	9	8	8
A57	28	22	4	4	4
A58	19	12	4	9	9
A59	4	3	3	4	4
A60	7	13	5	3	3
A61	23	24	5	3	3
A62	26	20	3	4	4
A63	12	6	7	11	11
A64	25	26	9	8	8
A65	1	6	2	2	2
A66	24	23	5	4	4
A67	1	2	10	5	5
A68	21	15	4	6	6
A69	9	3	6	4	4
A70	9	15	5	4	4
A71	3	4	3	3	3
A72	19	25	5	3	3
A73	23	28	5	2	2
A74	5	11	4	3	3

ARC	FROM N.	TO N.	T. COST
NrA1	3	10	2
NrA2	25	30	5
NrA3	16	10	2
NrA4	30	25	5
NrA5	33	34	1
NrA6	18	12	5
NrA7	26	25	9
NrA8	10	4	4
NrA9	25	29	7
NrA10	22	23	1
NrA11	24	34	10
NrA12	16	15	5
NrA13	10	16	2
NrA14	14	15	1
NrA15	13	7	5
NrA16	30	29	4
NrA17	25	19	5
NrA18	3	9	6
NrA19	28	23	5
NrA20	22	28	4
NrA21	8	2	8
NrA22	31	32	3
NrA23	20	14	3
NrA24	23	22	1
NrA25	17	24	9
NrA26	18	29	9
NrA27	29	25	7
NrA28	20	26	3
NrA29	26	27	4
NrA30	19	13	6
NrA31	15	14	1
NrA32	12	18	5
NrA33	11	17	7
NrA34	11	5	4
NrA35	33	32	5
NrA36	31	26	9
NrA37	2	1	10
